
-4.7
-4.7
-4.6
-4.5
-4.3
-4.2
-4.1
-4.0
-3.8
-3.6
-3.5
-3.2
-2.8
-2.7
-2.4
-1.8
-1.3
-1.3
-0.9
-0.8
-0.8
-0.8
-0.8
-0.8
-0.8
-0.8
-0.8
-0.8
-0.8
-0.8
-0.8
-0.8
-0.8
-0.8
-0.8
-0.8
-4.55
-4.5
-4.3
-4.15
-4.1
-4.05
-3.95
-3.95
-3.9
-3.7
-3.45
-3.35
-3.05
-2.85
-2.35
-1.8
-1.5
-1.15
-0.9
-0.85
-0.85
-0.85
-0.8
-0.8
-0.8
-0.8
-0.8
-0.8
-0.8
-0.8
-0.8
-0.8
-0.75
-0.75
-0.75
-0.75